
Gurobi 11.0.3 (linux64) logging started Mon Aug 25 13:38:13 2025

Set parameter LogFile to value "/home/yihong/Coding/OR_SUC/SUC_epstheta_results_bigM100000_thread4/case24_ieee_rts_theta0.1_epsilon0.1_gurobi_seed70000_num_gen100_N_WDR50_load_scaling_factor1_ori_eps_T5quadra_cost_bc1.03.txt"
Set parameter TimeLimit to value 3600
Gurobi Optimizer version 11.0.3 build v11.0.3rc0 (linux64 - "Ubuntu 20.04.6 LTS")

CPU model: AMD EPYC 7532 32-Core Processor, instruction set [SSE2|AVX|AVX2]
Thread count: 64 physical cores, 128 logical processors, using up to 4 threads

Academic license 2399124 - for non-commercial use only - registered to yi___@ed.ac.uk
Optimize a model with 11547 rows, 6251 columns and 272622 nonzeros
Model fingerprint: 0x6605e547
Model has 500 quadratic constraints
Variable types: 5751 continuous, 500 integer (500 binary)
Coefficient statistics:
  Matrix range     [3e-04, 2e+03]
  QMatrix range    [2e-03, 8e-03]
  QLMatrix range   [5e-01, 6e+01]
  Objective range  [1e+00, 1e+00]
  Bounds range     [1e+00, 1e+00]
  RHS range        [1e+00, 9e+03]
Presolve removed 9524 rows and 2768 columns
Presolve time: 0.10s
Presolved: 2023 rows, 3483 columns, 11671 nonzeros
Presolved model has 500 quadratic constraint(s)
Variable types: 2983 continuous, 500 integer (500 binary)

Root relaxation: objective 6.307605e+03, 1569 iterations, 0.02 seconds (0.03 work units)

    Nodes    |    Current Node    |     Objective Bounds      |     Work
 Expl Unexpl |  Obj  Depth IntInf | Incumbent    BestBd   Gap | It/Node Time

     0     0 6307.60518    0    5          - 6307.60518      -     -    0s
H    0     0                    187733.96089 6307.60518  96.6%     -    0s
     0     0 94950.7802    0   10 187733.961 94950.7802  49.4%     -    0s
     0     0 164100.337    0    5 187733.961 164100.337  12.6%     -    0s
     0     0 164111.259    0   10 187733.961 164111.259  12.6%     -    0s
     0     0 164111.451    0   10 187733.961 164111.451  12.6%     -    0s
     0     0 164111.561    0   10 187733.961 164111.561  12.6%     -    0s
     0     2 164111.590    0   10 187733.961 164111.590  12.6%     -    0s
H   17    17                    164128.75947 164111.722  0.01%  26.7    0s
*   17    17               4    164128.75947 164111.722  0.01%  28.5    0s

Cutting planes:
  Implied bound: 5

Explored 19 nodes (3994 simplex iterations) in 0.76 seconds (0.64 work units)
Thread count was 4 (of 128 available processors)

Solution count 3: 164129 164129 187734 

Optimal solution found (tolerance 1.00e-03)
Warning: max constraint violation (1.1679e-07) exceeds tolerance
Best objective 1.641287594726e+05, best bound 1.641117216820e+05, gap 0.0104%

Gurobi 11.0.3 (linux64) logging started Mon Aug 25 13:38:15 2025

Set parameter LogFile to value "/home/yihong/Coding/OR_SUC/SUC_epstheta_results_bigM100000_thread4/case24_ieee_rts_theta0.1_epsilon0.1_gurobi_seed70000_num_gen100_N_WDR50_load_scaling_factor1_ori_eps_T5quadra_cost_bc1.03.txt"
Set parameter TimeLimit to value 3600
Gurobi Optimizer version 11.0.3 build v11.0.3rc0 (linux64 - "Ubuntu 20.04.6 LTS")

CPU model: AMD EPYC 7532 32-Core Processor, instruction set [SSE2|AVX|AVX2]
Thread count: 64 physical cores, 128 logical processors, using up to 4 threads

Academic license 2399124 - for non-commercial use only - registered to yi___@ed.ac.uk
Optimize a model with 28707 rows, 6252 columns and 2129551 nonzeros
Model fingerprint: 0x8505440b
Model has 501 quadratic constraints
Variable types: 5752 continuous, 500 integer (500 binary)
Coefficient statistics:
  Matrix range     [3e-04, 2e+03]
  QMatrix range    [2e-03, 5e+01]
  QLMatrix range   [5e-01, 6e+01]
  Objective range  [1e+00, 1e+00]
  Bounds range     [1e-01, 1e+00]
  RHS range        [4e-02, 2e+05]
  QRHS range       [5e+00, 5e+00]
Presolve removed 8575 rows and 2348 columns
Presolve time: 2.09s
Presolved: 20634 rows, 4405 columns, 431268 nonzeros
Presolved model has 500 quadratic constraint(s)
Presolved model has 1 bilinear constraint(s)
Warning: Model contains variables with very large bounds participating
         in product terms.
         Presolve was not able to compute smaller bounds for these variables.
         Consider bounding these variables or reformulating the model.


Solving non-convex MIQCP

Variable types: 3901 continuous, 504 integer (504 binary)

Root relaxation: objective 0.000000e+00, 2631 iterations, 0.64 seconds (1.68 work units)

    Nodes    |    Current Node    |     Objective Bounds      |     Work
 Expl Unexpl |  Obj  Depth IntInf | Incumbent    BestBd   Gap | It/Node Time

     0     0    0.00000    0    4          -    0.00000      -     -    4s
     0     0    0.00009    0    6          -    0.00009      -     -    5s
     0     0    0.00009    0    5          -    0.00009      -     -    6s
     0     0    0.00009    0    5          -    0.00009      -     -    7s
     0     0    0.00009    0   10          -    0.00009      -     -    7s
     0     0    0.00009    0   10          -    0.00009      -     -    7s
     0     0    0.00009    0    5          -    0.00009      -     -    8s
     0     0    0.00009    0    5          -    0.00009      -     -    8s
     0     0    0.00009    0    8          -    0.00009      -     -    8s
     0     0    0.00009    0    9          -    0.00009      -     -    9s
     0     0    0.00009    0    9          -    0.00009      -     -    9s
     0     0    0.00009    0    9          -    0.00009      -     -    9s
     0     0    0.00009    0    9          -    0.00009      -     -   10s
     0     0    0.00051    0    6          -    0.00051      -     -   11s
H    0     0                       0.0108422    0.00051  95.3%     -  681s
     0     2    0.01015    0    6    0.01084    0.01015  6.38%     -  682s
    90    66    0.01023   17    6    0.01084    0.01023  5.69%  22.0  685s
*  220   129              34       0.0102948    0.01024  0.51%  12.7 1582s
*  284    85              20       0.0102947    0.01028  0.15%  14.3 2356s
*  321    45              19       0.0102946    0.01028  0.15%  13.0 3280s
*  407     3              18       0.0102946    0.01028  0.15%  10.8 3601s
*  408     2              12       0.0102821    0.01028  0.03%  10.7 3601s

Cutting planes:
  Implied bound: 21
  RLT: 3

Explored 410 nodes (10340 simplex iterations) in 3601.90 seconds (1982.80 work units)
Thread count was 4 (of 128 available processors)

Solution count 6: 0.0102821 0.0102946 0.0102946 ... 0.0108422

Time limit reached
Best objective 1.028209849670e-02, best bound 1.027911632723e-02, gap 0.0290%
